; NOTE: this required renaming the path conditions....

; file: pos_n_1.smt
; generated by a call to `klee_dump_expr(.., pos_n)`
(declare-fun pos () (Array (_ BitVec 32) (_ BitVec 8) ) )
; dumped expression
(define-fun |pos_n_1| () (_ BitVec 32) (concat  (select  pos (_ bv3 32) ) (concat  (select  pos (_ bv2 32) ) (concat  (select  pos (_ bv1 32) ) (select  pos (_ bv0 32) ) ) ) ))
; path condition under which dumped expression is valid (use in ITE)
(define-fun |path_cond_pos_n_1| () Bool (bvslt  (_ bv99 32) (concat  (select  pos (_ bv3 32) ) (concat  (select  pos (_ bv2 32) ) (concat  (select  pos (_ bv1 32) ) (select  pos (_ bv0 32) ) ) ) ) ))


; file pos_n_2.smt
; generated by a call to `klee_dump_expr(.., pos_n)`
; dumped expression
(define-fun |pos_n_2| () (_ BitVec 32) (bvadd  (_ bv1 32) (concat  (select  pos (_ bv3 32) ) (concat  (select  pos (_ bv2 32) ) (concat  (select  pos (_ bv1 32) ) (select  pos (_ bv0 32) ) ) ) ) ))
; path condition under which dumped expression is valid (use in ITE)
(define-fun |path_cond_pos_n_2| () Bool (=  false (bvslt  (_ bv99 32) (concat  (select  pos (_ bv3 32) ) (concat  (select  pos (_ bv2 32) ) (concat  (select  pos (_ bv1 32) ) (select  pos (_ bv0 32) ) ) ) ) ) ))


; file: success_n_1.smt
; generated by a call to `klee_dump_expr(.., success_n)`
; dumped expression
(define-fun |success_n_1| () (_ BitVec 32) (_ bv0 32))
; path condition under which dumped expression is valid (use in ITE)
(define-fun |path_cond_success_n_1| () Bool (bvslt  (_ bv99 32) (concat  (select  pos (_ bv3 32) ) (concat  (select  pos (_ bv2 32) ) (concat  (select  pos (_ bv1 32) ) (select  pos (_ bv0 32) ) ) ) ) ))


; file: success_n_2.smt
; generated by a call to `klee_dump_expr(.., success_n)`
; dumped expression
(define-fun |success_n_2| () (_ BitVec 32) (_ bv1 32))
; path condition under which dumped expression is valid (use in ITE)
(define-fun |path_cond_success_n_2| () Bool (=  false (bvslt  (_ bv99 32) (concat  (select  pos (_ bv3 32) ) (concat  (select  pos (_ bv2 32) ) (concat  (select  pos (_ bv1 32) ) (select  pos (_ bv0 32) ) ) ) ) ) ))


; pos_n after executing right()
(define-fun |pos_n| () (_ BitVec 32) (ite |path_cond_pos_n_1| |pos_n_1| |pos_n_2|))

; success_n after executing right()
(define-fun |success_n| () (_ BitVec 32) (ite |path_cond_success_n_1| |success_n_1| |success_n_2|))

